c File: data_files/evolved_graphs/g0617.col
c
c Auto generated graph
c
p edge 100 1433
e 1 7
e 1 47
e 1 50
e 1 51
e 1 52
e 1 57
e 1 58
e 1 62
e 1 65
e 1 66
e 1 67
e 1 69
e 1 72
e 1 74
e 1 76
e 1 79
e 1 80
e 1 81
e 1 84
e 1 85
e 1 87
e 1 90
e 1 92
e 1 93
e 1 95
e 1 96
e 1 97
e 1 99
e 2 47
e 2 49
e 2 51
e 2 52
e 2 53
e 2 54
e 2 56
e 2 57
e 2 61
e 2 62
e 2 63
e 2 65
e 2 69
e 2 81
e 2 83
e 2 88
e 2 93
e 2 94
e 2 95
e 2 96
e 2 97
e 2 98
e 2 100
e 3 47
e 3 48
e 3 55
e 3 57
e 3 58
e 3 59
e 3 64
e 3 67
e 3 72
e 3 83
e 3 85
e 3 86
e 3 89
e 3 93
e 3 94
e 3 95
e 3 97
e 3 98
e 3 99
e 4 52
e 4 55
e 4 63
e 4 64
e 4 67
e 4 69
e 4 70
e 4 74
e 4 80
e 4 83
e 4 84
e 4 86
e 4 88
e 4 89
e 4 90
e 4 92
e 4 93
e 4 94
e 4 95
e 4 97
e 4 98
e 4 99
e 5 47
e 5 48
e 5 56
e 5 57
e 5 60
e 5 64
e 5 71
e 5 72
e 5 75
e 5 76
e 5 79
e 5 81
e 5 82
e 5 87
e 5 89
e 5 93
e 5 94
e 5 95
e 5 96
e 5 97
e 5 98
e 6 48
e 6 49
e 6 50
e 6 56
e 6 59
e 6 61
e 6 64
e 6 65
e 6 66
e 6 68
e 6 69
e 6 72
e 6 73
e 6 75
e 6 81
e 6 84
e 6 85
e 6 86
e 6 87
e 6 90
e 6 92
e 6 93
e 6 94
e 6 95
e 6 96
e 6 97
e 6 98
e 6 99
e 6 100
e 7 49
e 7 57
e 7 58
e 7 61
e 7 71
e 7 73
e 7 74
e 7 75
e 7 76
e 7 82
e 7 83
e 7 84
e 7 86
e 7 87
e 7 92
e 7 93
e 7 94
e 7 97
e 7 99
e 7 100
e 8 52
e 8 54
e 8 55
e 8 58
e 8 60
e 8 71
e 8 72
e 8 73
e 8 76
e 8 77
e 8 78
e 8 80
e 8 81
e 8 86
e 8 88
e 8 91
e 8 93
e 8 94
e 8 95
e 8 96
e 8 97
e 8 99
e 8 100
e 9 37
e 9 48
e 9 53
e 9 55
e 9 57
e 9 58
e 9 60
e 9 62
e 9 64
e 9 65
e 9 79
e 9 83
e 9 88
e 9 90
e 9 94
e 9 95
e 9 96
e 9 98
e 9 99
e 9 100
e 10 55
e 10 56
e 10 63
e 10 70
e 10 73
e 10 79
e 10 81
e 10 82
e 10 85
e 10 90
e 10 92
e 10 93
e 10 94
e 10 95
e 10 96
e 10 98
e 10 99
e 11 21
e 11 48
e 11 53
e 11 54
e 11 62
e 11 63
e 11 71
e 11 74
e 11 78
e 11 79
e 11 80
e 11 82
e 11 84
e 11 85
e 11 86
e 11 87
e 11 90
e 11 91
e 11 92
e 11 93
e 11 94
e 11 95
e 11 97
e 11 98
e 11 99
e 12 48
e 12 49
e 12 55
e 12 62
e 12 63
e 12 67
e 12 73
e 12 74
e 12 75
e 12 77
e 12 79
e 12 80
e 12 84
e 12 85
e 12 86
e 12 88
e 12 91
e 12 93
e 12 95
e 12 96
e 12 97
e 12 99
e 13 39
e 13 55
e 13 56
e 13 58
e 13 61
e 13 62
e 13 64
e 13 68
e 13 75
e 13 76
e 13 77
e 13 78
e 13 85
e 13 86
e 13 90
e 13 91
e 13 92
e 13 94
e 13 95
e 13 96
e 13 97
e 13 98
e 13 99
e 13 100
e 14 49
e 14 55
e 14 56
e 14 58
e 14 61
e 14 64
e 14 65
e 14 67
e 14 74
e 14 81
e 14 82
e 14 86
e 14 87
e 14 90
e 14 91
e 14 92
e 14 93
e 14 95
e 14 96
e 14 98
e 14 99
e 15 47
e 15 49
e 15 51
e 15 52
e 15 53
e 15 54
e 15 58
e 15 59
e 15 62
e 15 65
e 15 67
e 15 69
e 15 73
e 15 76
e 15 79
e 15 83
e 15 85
e 15 86
e 15 88
e 15 91
e 15 93
e 15 94
e 15 95
e 15 96
e 15 97
e 15 99
e 15 100
e 16 57
e 16 62
e 16 68
e 16 72
e 16 76
e 16 78
e 16 81
e 16 83
e 16 85
e 16 87
e 16 89
e 16 95
e 16 96
e 16 97
e 16 98
e 16 99
e 17 51
e 17 55
e 17 60
e 17 61
e 17 63
e 17 65
e 17 70
e 17 72
e 17 73
e 17 74
e 17 75
e 17 77
e 17 81
e 17 82
e 17 83
e 17 84
e 17 85
e 17 86
e 17 95
e 17 96
e 17 98
e 18 49
e 18 60
e 18 62
e 18 69
e 18 70
e 18 75
e 18 77
e 18 82
e 18 88
e 18 89
e 18 93
e 18 94
e 18 95
e 18 96
e 18 98
e 18 99
e 18 100
e 19 26
e 19 37
e 19 49
e 19 57
e 19 60
e 19 62
e 19 65
e 19 66
e 19 67
e 19 71
e 19 74
e 19 76
e 19 81
e 19 82
e 19 83
e 19 86
e 19 88
e 19 89
e 19 91
e 19 93
e 19 94
e 19 96
e 19 97
e 19 98
e 19 100
e 20 49
e 20 50
e 20 52
e 20 55
e 20 57
e 20 62
e 20 73
e 20 74
e 20 77
e 20 78
e 20 79
e 20 82
e 20 86
e 20 92
e 20 93
e 20 95
e 20 96
e 20 97
e 20 99
e 20 100
e 21 42
e 21 49
e 21 51
e 21 52
e 21 59
e 21 63
e 21 65
e 21 66
e 21 67
e 21 69
e 21 79
e 21 81
e 21 85
e 21 89
e 21 91
e 21 93
e 21 98
e 21 99
e 22 49
e 22 50
e 22 53
e 22 58
e 22 59
e 22 60
e 22 62
e 22 63
e 22 71
e 22 75
e 22 76
e 22 79
e 22 81
e 22 82
e 22 85
e 22 86
e 22 90
e 22 92
e 22 93
e 22 94
e 22 99
e 22 100
e 23 47
e 23 48
e 23 56
e 23 58
e 23 61
e 23 62
e 23 64
e 23 68
e 23 73
e 23 75
e 23 80
e 23 81
e 23 82
e 23 85
e 23 86
e 23 87
e 23 89
e 23 91
e 23 93
e 23 96
e 23 97
e 23 98
e 24 48
e 24 54
e 24 59
e 24 64
e 24 69
e 24 71
e 24 74
e 24 80
e 24 81
e 24 87
e 24 90
e 24 92
e 24 93
e 24 95
e 24 97
e 24 100
e 25 47
e 25 51
e 25 56
e 25 58
e 25 60
e 25 63
e 25 64
e 25 67
e 25 68
e 25 69
e 25 79
e 25 88
e 25 89
e 25 91
e 25 93
e 25 96
e 25 97
e 25 98
e 25 99
e 26 49
e 26 51
e 26 52
e 26 53
e 26 55
e 26 56
e 26 66
e 26 67
e 26 68
e 26 70
e 26 72
e 26 79
e 26 87
e 26 89
e 26 92
e 26 94
e 26 96
e 26 98
e 26 99
e 26 100
e 27 59
e 27 60
e 27 61
e 27 66
e 27 68
e 27 77
e 27 79
e 27 81
e 27 82
e 27 83
e 27 85
e 27 86
e 27 90
e 27 91
e 27 92
e 27 93
e 27 95
e 27 96
e 27 97
e 27 98
e 27 100
e 28 47
e 28 51
e 28 60
e 28 67
e 28 69
e 28 70
e 28 72
e 28 73
e 28 74
e 28 76
e 28 78
e 28 82
e 28 88
e 28 93
e 28 94
e 28 96
e 28 97
e 28 98
e 28 99
e 28 100
e 29 47
e 29 48
e 29 49
e 29 51
e 29 59
e 29 60
e 29 61
e 29 62
e 29 63
e 29 64
e 29 69
e 29 77
e 29 82
e 29 83
e 29 87
e 29 92
e 29 93
e 29 94
e 29 95
e 29 97
e 29 98
e 29 100
e 30 53
e 30 54
e 30 62
e 30 75
e 30 76
e 30 83
e 30 84
e 30 87
e 30 89
e 30 90
e 30 91
e 30 92
e 30 93
e 30 94
e 30 95
e 30 97
e 30 98
e 30 99
e 30 100
e 31 47
e 31 50
e 31 51
e 31 54
e 31 55
e 31 59
e 31 60
e 31 62
e 31 66
e 31 71
e 31 72
e 31 73
e 31 76
e 31 78
e 31 82
e 31 83
e 31 85
e 31 90
e 31 92
e 31 93
e 31 94
e 31 95
e 31 96
e 31 97
e 31 99
e 31 100
e 32 50
e 32 59
e 32 63
e 32 67
e 32 68
e 32 76
e 32 82
e 32 86
e 32 88
e 32 94
e 32 95
e 32 96
e 32 97
e 32 100
e 33 47
e 33 52
e 33 56
e 33 57
e 33 58
e 33 59
e 33 65
e 33 66
e 33 71
e 33 73
e 33 77
e 33 78
e 33 79
e 33 80
e 33 81
e 33 88
e 33 91
e 33 92
e 33 93
e 33 95
e 33 96
e 33 97
e 33 98
e 33 99
e 33 100
e 34 47
e 34 50
e 34 51
e 34 53
e 34 55
e 34 59
e 34 60
e 34 61
e 34 62
e 34 65
e 34 66
e 34 67
e 34 70
e 34 75
e 34 76
e 34 81
e 34 92
e 34 93
e 34 94
e 34 96
e 34 97
e 34 98
e 34 99
e 35 47
e 35 50
e 35 52
e 35 53
e 35 54
e 35 63
e 35 65
e 35 66
e 35 67
e 35 68
e 35 73
e 35 75
e 35 77
e 35 80
e 35 81
e 35 82
e 35 85
e 35 87
e 35 94
e 35 95
e 35 96
e 35 97
e 35 98
e 35 99
e 36 47
e 36 48
e 36 49
e 36 51
e 36 52
e 36 54
e 36 55
e 36 63
e 36 65
e 36 69
e 36 73
e 36 74
e 36 75
e 36 76
e 36 77
e 36 80
e 36 81
e 36 85
e 36 91
e 36 93
e 36 94
e 36 95
e 36 96
e 36 97
e 36 98
e 36 99
e 36 100
e 37 39
e 37 49
e 37 51
e 37 58
e 37 63
e 37 64
e 37 65
e 37 66
e 37 69
e 37 72
e 37 76
e 37 81
e 37 83
e 37 84
e 37 86
e 37 88
e 37 91
e 37 93
e 37 94
e 37 96
e 37 97
e 37 98
e 37 99
e 37 100
e 38 47
e 38 49
e 38 50
e 38 52
e 38 55
e 38 56
e 38 61
e 38 63
e 38 64
e 38 68
e 38 70
e 38 73
e 38 79
e 38 82
e 38 84
e 38 85
e 38 88
e 38 90
e 38 93
e 38 94
e 38 95
e 38 96
e 38 97
e 38 98
e 39 47
e 39 48
e 39 52
e 39 53
e 39 54
e 39 55
e 39 62
e 39 70
e 39 72
e 39 73
e 39 74
e 39 87
e 39 88
e 39 91
e 39 92
e 39 93
e 39 94
e 39 95
e 39 96
e 39 97
e 39 98
e 39 99
e 39 100
e 40 48
e 40 50
e 40 51
e 40 60
e 40 65
e 40 66
e 40 67
e 40 68
e 40 70
e 40 71
e 40 75
e 40 77
e 40 79
e 40 81
e 40 82
e 40 83
e 40 87
e 40 88
e 40 89
e 40 90
e 40 91
e 40 93
e 40 94
e 40 96
e 40 100
e 41 47
e 41 51
e 41 54
e 41 55
e 41 56
e 41 58
e 41 61
e 41 63
e 41 64
e 41 66
e 41 67
e 41 70
e 41 73
e 41 77
e 41 81
e 41 93
e 41 94
e 41 96
e 41 97
e 41 99
e 42 49
e 42 51
e 42 52
e 42 55
e 42 56
e 42 57
e 42 58
e 42 59
e 42 60
e 42 61
e 42 63
e 42 64
e 42 65
e 42 66
e 42 69
e 42 76
e 42 79
e 42 82
e 42 83
e 42 86
e 42 93
e 42 94
e 42 95
e 42 97
e 43 47
e 43 51
e 43 52
e 43 53
e 43 54
e 43 56
e 43 58
e 43 64
e 43 65
e 43 70
e 43 76
e 43 87
e 43 90
e 43 91
e 43 93
e 43 95
e 43 97
e 43 98
e 43 99
e 43 100
e 44 50
e 44 58
e 44 62
e 44 65
e 44 66
e 44 74
e 44 77
e 44 80
e 44 81
e 44 85
e 44 88
e 44 93
e 44 94
e 44 95
e 44 96
e 44 97
e 44 98
e 45 47
e 45 50
e 45 56
e 45 57
e 45 60
e 45 61
e 45 63
e 45 65
e 45 71
e 45 72
e 45 76
e 45 85
e 45 86
e 45 89
e 45 90
e 45 91
e 45 93
e 45 94
e 45 95
e 45 96
e 45 97
e 45 98
e 45 99
e 45 100
e 46 50
e 46 54
e 46 55
e 46 58
e 46 60
e 46 62
e 46 70
e 46 73
e 46 75
e 46 77
e 46 78
e 46 81
e 46 91
e 46 93
e 46 94
e 46 95
e 46 96
e 46 97
e 46 98
e 46 99
e 46 100
e 47 49
e 47 50
e 47 51
e 47 52
e 47 53
e 47 54
e 47 55
e 47 56
e 47 57
e 47 58
e 47 59
e 47 60
e 47 61
e 47 62
e 47 63
e 47 64
e 47 65
e 47 66
e 47 67
e 47 68
e 47 69
e 47 70
e 47 71
e 47 72
e 47 73
e 47 74
e 47 75
e 47 76
e 47 77
e 47 78
e 47 79
e 47 80
e 47 81
e 47 82
e 47 83
e 47 84
e 47 85
e 47 86
e 47 87
e 47 88
e 47 89
e 47 90
e 47 91
e 47 92
e 47 96
e 47 97
e 47 98
e 47 99
e 47 100
e 48 49
e 48 50
e 48 51
e 48 52
e 48 53
e 48 54
e 48 55
e 48 56
e 48 57
e 48 58
e 48 59
e 48 60
e 48 61
e 48 62
e 48 63
e 48 64
e 48 65
e 48 66
e 48 67
e 48 68
e 48 69
e 48 70
e 48 71
e 48 72
e 48 73
e 48 74
e 48 75
e 48 76
e 48 77
e 48 78
e 48 79
e 48 80
e 48 81
e 48 82
e 48 83
e 48 84
e 48 85
e 48 86
e 48 87
e 48 88
e 48 89
e 48 90
e 48 91
e 48 92
e 48 93
e 48 94
e 48 95
e 48 96
e 48 97
e 48 98
e 48 99
e 48 100
e 49 51
e 49 52
e 49 53
e 49 54
e 49 55
e 49 56
e 49 57
e 49 58
e 49 59
e 49 60
e 49 61
e 49 62
e 49 63
e 49 64
e 49 65
e 49 66
e 49 67
e 49 68
e 49 69
e 49 70
e 49 71
e 49 72
e 49 73
e 49 74
e 49 75
e 49 76
e 49 77
e 49 78
e 49 79
e 49 80
e 49 81
e 49 82
e 49 83
e 49 84
e 49 85
e 49 86
e 49 87
e 49 88
e 49 89
e 49 90
e 49 91
e 49 92
e 49 93
e 49 94
e 49 95
e 49 96
e 49 98
e 49 99
e 49 100
e 50 54
e 50 55
e 50 57
e 50 58
e 50 59
e 50 60
e 50 61
e 50 62
e 50 63
e 50 64
e 50 65
e 50 66
e 50 67
e 50 68
e 50 69
e 50 70
e 50 71
e 50 72
e 50 73
e 50 74
e 50 75
e 50 76
e 50 77
e 50 78
e 50 79
e 50 80
e 50 81
e 50 82
e 50 83
e 50 84
e 50 93
e 50 94
e 50 95
e 50 96
e 50 97
e 50 98
e 50 99
e 51 59
e 51 60
e 51 61
e 51 62
e 51 63
e 51 64
e 51 65
e 51 66
e 51 67
e 51 68
e 51 69
e 51 70
e 51 71
e 51 72
e 51 73
e 51 74
e 51 75
e 51 76
e 51 77
e 51 78
e 51 79
e 51 80
e 51 81
e 51 82
e 51 83
e 51 84
e 51 93
e 51 94
e 51 95
e 51 96
e 51 97
e 51 98
e 51 99
e 52 55
e 52 57
e 52 59
e 52 60
e 52 61
e 52 62
e 52 63
e 52 64
e 52 65
e 52 66
e 52 67
e 52 68
e 52 69
e 52 70
e 52 71
e 52 72
e 52 73
e 52 74
e 52 75
e 52 76
e 52 77
e 52 78
e 52 79
e 52 80
e 52 81
e 52 82
e 52 83
e 52 84
e 52 93
e 52 95
e 52 96
e 52 97
e 52 98
e 52 99
e 52 100
e 53 54
e 53 57
e 53 58
e 53 59
e 53 60
e 53 61
e 53 62
e 53 63
e 53 64
e 53 65
e 53 66
e 53 67
e 53 68
e 53 69
e 53 70
e 53 71
e 53 72
e 53 73
e 53 74
e 53 75
e 53 76
e 53 77
e 53 78
e 53 79
e 53 80
e 53 81
e 53 82
e 53 83
e 53 84
e 53 93
e 53 94
e 53 95
e 53 96
e 53 98
e 53 100
e 54 60
e 54 61
e 54 93
e 54 95
e 54 96
e 54 97
e 54 100
e 55 60
e 55 61
e 55 69
e 55 79
e 55 83
e 55 93
e 55 94
e 55 95
e 55 96
e 55 97
e 55 98
e 55 100
e 56 60
e 56 61
e 56 89
e 56 91
e 56 93
e 56 94
e 56 96
e 56 98
e 56 99
e 56 100
e 57 59
e 57 93
e 57 94
e 57 95
e 57 96
e 57 97
e 57 98
e 57 99
e 58 59
e 58 93
e 58 94
e 58 95
e 58 97
e 58 98
e 58 99
e 59 82
e 59 93
e 59 94
e 59 98
e 59 99
e 59 100
e 60 93
e 60 95
e 60 96
e 60 98
e 60 99
e 60 100
e 61 93
e 61 94
e 61 95
e 61 96
e 61 97
e 61 98
e 61 99
e 61 100
e 62 93
e 62 94
e 62 95
e 62 96
e 62 98
e 62 99
e 62 100
e 63 93
e 63 94
e 63 95
e 63 98
e 63 99
e 64 93
e 64 94
e 64 95
e 64 96
e 64 97
e 64 99
e 64 100
e 65 96
e 65 97
e 65 100
e 66 94
e 66 95
e 66 98
e 67 96
e 68 97
e 69 98
e 70 99
e 71 81
e 71 93
e 71 96
e 71 97
e 71 98
e 72 96
e 72 97
e 73 89
e 73 96
e 73 100
e 74 94
e 74 96
e 74 99
e 77 96
e 78 94
e 78 95
e 78 97
e 79 95
e 79 97
e 80 96
e 80 99
e 81 95
e 81 100
e 82 96
e 82 97
e 82 98
e 83 92
e 83 93
e 83 98
e 84 94
e 84 95
e 84 96
e 85 93
e 85 98
e 86 99
e 87 95
e 87 99
e 88 93
e 88 95
e 88 98
e 89 93
e 89 94
e 89 97
e 89 98
e 90 96
e 90 98
e 91 96
e 91 97
e 92 96
e 98 99
